n_res = 4;
rc = [ 11, 10, 10, 10 ];
n_tasks = 30;
d = [ 7, 10, 5, 7, 8, 1, 9, 6, 2, 6, 6, 8, 5, 4, 8, 4, 8, 10, 7, 6, 3, 6, 8, 9, 4, 2, 3, 10, 2, 6 ];
rr = [| 0, 0, 0, 0, 0, 6, 1, 0, 0, 0, 10, 8, 0, 0, 1, 0, 0, 0, 0, 0, 0, 0, 3, 0, 0, 0, 0, 0, 0, 0
      | 0, 0, 4, 3, 0, 0, 0, 0, 0, 7, 0, 0, 7, 9, 0, 0, 0, 0, 0, 0, 0, 6, 0, 0, 7, 0, 0, 0, 0, 0
      | 0, 3, 0, 0, 10, 0, 0, 2, 2, 0, 0, 0, 0, 0, 0, 0, 0, 0, 5, 2, 3, 0, 0, 0, 0, 6, 0, 3, 4, 2
      | 3, 0, 0, 0, 0, 0, 0, 0, 0, 0, 0, 0, 0, 0, 0, 5, 3, 9, 0, 0, 0, 0, 0, 3, 0, 0, 5, 0, 0, 0 |];
suc = [ { 4, 8, 22 },
       { 9, 11 },
       { 5, 13, 30 },
       { 5, 6 },
       { 7, 12, 14 },
       { 7, 24, 30 },
       { 9, 10, 26 },
       { 9, 17, 19 },
       { 28 },
       { 18, 27 },
       { 16, 23 },
       { 15, 18, 21 },
       { 18 },
       { 15, 19 },
       { 20, 27 },
       { 24 },
       { 20, 23 },
       { 20 },
       { 21, 25 },
       { 25 },
       { 24 },
       { 25, 26 },
       { 30 },
       { 26, 27 },
       { 29 },
       { 28, 29 },
       { 28 },
       {  },
       {  },
       {  } ];
